(set-info :smt-lib-version 2.6)
(set-logic QF_UFLRA)
(set-info :source |
MathSat group

|)
(set-info :category "random")
(set-info :status sat)
(declare-fun x0 () Real)
(declare-fun x1 () Real)
(declare-fun x2 () Real)
(declare-fun x3 () Real)
(declare-fun x4 () Real)
(declare-fun x5 () Real)
(declare-fun x6 () Real)
(declare-fun x7 () Real)
(declare-fun x8 () Real)
(declare-fun x9 () Real)
(declare-fun x10 () Real)
(declare-fun x11 () Real)
(declare-fun x12 () Real)
(declare-fun x13 () Real)
(declare-fun x14 () Real)
(declare-fun x15 () Real)
(declare-fun x16 () Real)
(declare-fun x17 () Real)
(declare-fun x18 () Real)
(declare-fun x19 () Real)
(declare-fun x20 () Real)
(declare-fun x21 () Real)
(declare-fun x22 () Real)
(declare-fun x23 () Real)
(declare-fun x24 () Real)
(declare-fun x25 () Real)
(declare-fun x26 () Real)
(declare-fun x27 () Real)
(declare-fun x28 () Real)
(declare-fun x29 () Real)
(declare-fun f0_1 (Real) Real)
(declare-fun f0_2 (Real Real) Real)
(declare-fun f0_3 (Real Real Real) Real)
(declare-fun f0_4 (Real Real Real Real) Real)
(declare-fun P0 () Bool)
(declare-fun P1 () Bool)
(declare-fun P2 () Bool)
(declare-fun P3 () Bool)
(declare-fun P4 () Bool)
(declare-fun P5 () Bool)
(declare-fun P6 () Bool)
(declare-fun P7 () Bool)
(declare-fun P8 () Bool)
(declare-fun P9 () Bool)
(declare-fun P10 () Bool)
(declare-fun P11 () Bool)
(declare-fun P12 () Bool)
(declare-fun P13 () Bool)
(declare-fun P14 () Bool)
(declare-fun P15 () Bool)
(declare-fun P16 () Bool)
(declare-fun P17 () Bool)
(declare-fun P18 () Bool)
(declare-fun P19 () Bool)
(declare-fun P20 () Bool)
(declare-fun P21 () Bool)
(declare-fun P22 () Bool)
(declare-fun P23 () Bool)
(declare-fun P24 () Bool)
(declare-fun P25 () Bool)
(declare-fun P26 () Bool)
(declare-fun P27 () Bool)
(declare-fun P28 () Bool)
(declare-fun P29 () Bool)
(assert (let ((?v_11 (* 3 x21)) (?v_65 (* 16 x11)) (?v_31 (f0_1 x20))) (let ((?v_128 (distinct ?v_31 (f0_1 x28))) (?v_86 (distinct x22 (f0_2 x19 x13))) (?v_96 (= (f0_1 x16) (f0_2 x25 x0))) (?v_76 (= x11 (f0_1 x25))) (?v_77 (f0_1 x26))) (let ((?v_112 (= x20 ?v_77)) (?v_71 (distinct (f0_1 x10) x2)) (?v_24 (distinct (f0_2 x13 x15) x7)) (?v_35 (distinct x24 x3)) (?v_27 (f0_1 x2))) (let ((?v_80 (= ?v_27 (f0_2 x1 x3))) (?v_66 (f0_1 x13))) (let ((?v_140 (distinct ?v_66 x10)) (?v_25 (f0_2 x10 x2))) (let ((?v_54 (= (f0_2 x22 x20) ?v_25)) (?v_19 (distinct (f0_2 x5 x14) (f0_1 x29))) (?v_48 (= x0 (f0_2 x15 x10))) (?v_115 (= ?v_31 ?v_27)) (?v_70 (distinct x11 x13)) (?v_105 (distinct x15 (f0_2 x13 x18))) (?v_7 (distinct x24 (f0_2 x3 x7))) (?v_18 (f0_1 x3))) (let ((?v_52 (distinct (f0_2 x12 x10) ?v_18)) (?v_9 (= x14 (f0_1 x15))) (?v_44 (= (f0_2 x7 x21) (f0_2 x23 x10))) (?v_41 (distinct x8 (f0_2 x29 x21))) (?v_13 (f0_1 x19))) (let ((?v_33 (= ?v_13 (f0_2 x4 x19))) (?v_73 (= x16 ?v_66)) (?v_49 (distinct (f0_2 x21 x11) (f0_2 x14 x14))) (?v_45 (= ?v_13 ?v_25)) (?v_79 (distinct ?v_13 (f0_2 x18 x27))) (?v_46 (= (f0_1 x1) x3)) (?v_81 (= ?v_18 ?v_77)) (?v_28 (= (f0_1 x7) x6)) (?v_8 (= (f0_2 x10 x20) (f0_2 x6 x12))) (?v_40 (not ?v_24))) (let ((?v_6 (not ?v_46)) (?v_59 (not ?v_7)) (?v_42 (not P27)) (?v_10 (not P19)) (?v_154 (not ?v_28)) (?v_75 (not P11)) (?v_131 (not ?v_96)) (?v_60 (not ?v_9)) (?v_134 (not ?v_80)) (?v_90 (not P28)) (?v_61 (not P1)) (?v_155 (not ?v_70)) (?v_47 (not ?v_81)) (?v_30 (not ?v_8)) (?v_22 (not P18)) (?v_16 (not P17)) (?v_58 (not ?v_76)) (?v_39 (not P3)) (?v_99 (not P0)) (?v_12 (not P21)) (?v_78 (not P5)) (?v_156 (not P10)) (?v_34 (not ?v_52)) (?v_142 (not P14)) (?v_29 (not P22)) (?v_89 (not ?v_79)) (?v_56 (not ?v_128)) (?v_62 (not ?v_48)) (?v_150 (not ?v_33)) (?v_114 (not ?v_49)) (?v_63 (not P25)) (?v_93 (not ?v_41)) (?v_92 (not P24)) (?v_139 (not ?v_44)) (?v_102 (not P6)) (?v_97 (not ?v_140)) (?v_149 (not P15)) (?v_107 (not ?v_54)) (?v_67 (not P2)) (?v_120 (not ?v_45)) (?v_124 (not P4)) (?v_141 (not ?v_86)) (?v_122 (not P8)) (?v_83 (not ?v_73)) (?v_85 (not P26)) (?v_151 (not P23)) (?v_130 (not ?v_35)) (?v_133 (not P12)) (?v_108 (not ?v_71)) (?v_117 (not P20)) (?v_123 (not P13)) (?v_121 (not P16)) (?v_137 (not ?v_115)) (?v_145 (not ?v_112)) (?v_126 (not ?v_19)) (?v_148 (not ?v_105))) (let ((?v_157 (or P10 ?v_85)) (?v_153 (not (<= (- (- (* 7 x20) (* 42 x9)) (* 7 x28)) 24))) (?v_152 (not P7)) (?v_23 (<= (+ (* 18 x2) (* 42 x29) (* 21 x22)) 29)) (?v_5 (= (+ (* 29 x7) x15 (* 20 x19)) 24)) (?v_20 (<= (+ (* 14 x7) (* 4 x25) (* 19 x17)) 44))) (let ((?v_125 (not ?v_20)) (?v_84 (<= (+ (* 33 x6) ?v_11) 0)) (?v_51 (not ?v_23))) (let ((?v_146 (not ?v_84)) (?v_118 (not ?v_5)) (?v_98 (<= (+ (* (- 13) x7) (* 33 x11) (* 4 x14)) (- 40))) (?v_0 (<= (- (- x28 (* 39 x25)) (* 28 x7)) (- 5)))) (let ((?v_88 (not ?v_0)) (?v_1 (< (+ (- (* 39 x4) (* 20 x24)) (* 35 x6)) (- 36))) (?v_3 (= (+ (* (- 14) x3) (* 19 x15) (* 18 x15)) (- 23))) (?v_2 (<= (+ (- 0 (* 23 x2)) (* 35 x20)) (- 31)))) (let ((?v_37 (not ?v_2)) (?v_4 (<= (+ (* (- 40) x23) (* 14 x17) (* 9 x14)) (- 9)))) (let ((?v_50 (not ?v_4)) (?v_26 (not ?v_3)) (?v_57 (< (- (- (* (- 27) x5) (* 24 x13)) (* 27 x6)) 13))) (let ((?v_111 (not ?v_57)) (?v_74 (distinct (- (- (* (- 26) x28) (* 19 x10)) (* 8 x1)) 23)) (?v_55 (<= (+ (* 6 x3) ?v_65 (* 14 x4)) (- 35))) (?v_14 (<= (- (+ (* (- 41) x21) ?v_11) (* 16 x27)) (- 34))) (?v_21 (<= (- (+ (* (- 18) x22) x8) (* 18 x19)) (- 38)))) (let ((?v_43 (not ?v_21)) (?v_36 (distinct (- (+ (* 35 x18) x20) (* 10 x25)) (- 8))) (?v_17 (< (- (+ (* 22 x26) (* 7 x1)) (* 22 x4)) (- 22))) (?v_15 (= (+ (- (* (- 5) x29) (* 39 x22)) (* 27 x1)) (- 30))) (?v_72 (distinct (- (+ (* 9 x20) (* 41 x11)) (* 7 x24)) (- 16))) (?v_32 (= (+ (* (- 9) x8) (* 19 x4) (* 25 x26)) 7)) (?v_38 (= (+ (- x28 (* 13 x21)) (* 30 x18)) (- 34)))) (let ((?v_53 (not ?v_32)) (?v_100 (not ?v_15)) (?v_94 (not ?v_38)) (?v_68 (<= (+ (* (- 15) x25) (* 25 x14) (* 30 x7)) (- 26))) (?v_64 (not ?v_55)) (?v_113 (not ?v_1)) (?v_69 (= (- (+ (* 38 x21) (* 12 x15)) (* 6 x7)) (- 17))) (?v_129 (<= (+ (* (- 14) x24) (* 11 x2) ?v_65) (- 16)))) (let ((?v_109 (not ?v_129)) (?v_82 (not ?v_68)) (?v_87 (< (+ (- (* (- 24) x27) x7) (* 24 x12)) 39)) (?v_91 (= (+ (- (* 31 x23) (* 22 x15)) (* 30 x20)) (- 26)))) (let ((?v_110 (not ?v_91)) (?v_143 (not ?v_69)) (?v_147 (not ?v_72)) (?v_104 (<= (+ (* (- 34) x15) (* 17 x14) (* 11 x7)) 6)) (?v_106 (distinct (+ (* (- 27) x3) (* 14 x23) (* 38 x16)) 27)) (?v_95 (not ?v_87)) (?v_103 (<= (+ (- (* 10 x0) (* 10 x15)) (* 16 x19)) (- 42))) (?v_101 (not ?v_74)) (?v_119 (not ?v_14)) (?v_132 (not ?v_98))) (let ((?v_116 (not ?v_104))) (let ((?v_135 (or ?v_116 ?v_105)) (?v_136 (not ?v_106)) (?v_138 (not ?v_36)) (?v_144 (not ?v_103)) (?v_127 (not ?v_17))) (and (and (and (and (and (and (and (and (and (and (and (and (and (and (and (and (and (and (and (and (and (and (and (and (and (and (and (and (and (and (and (and (and (and (and (and (and (and (and (and (and (and (and (and (and (and (and (and (and (and (and (and (and (and (and (and (and (and (and (and (and (and (and (and (and (and (and (and (and (and (and (and (and (and (and (and (and (and (and (and (and (and (and (and (and (and (and (and (and (and (and (and (and (and (and (and (and (and (and (and (and (and (and (and (and (and (and (and (and (and (and (and (and (and (and (and (and (and (and (and (and (and (and (and (and (and (and (and (and (and (and (and (and (and (and (and (and (and (and (and (and (and (and (and (and (and (and (and (and (and (and (and (and (and (and (and (and (and (and (and (and (and (and (and (and (and (and (and (and (and (and (and (and (and (and (and (and (and (and (and (and (and (and (and (and (and (and (and (and (and (and (and (and (and (and (and (and (and (and (and (and (and (and (and (and (and (and (and (and (and (and (and (and (and (and (and (and (and (and (and (and (and (and (and (and (and (and (and (and (and (and (and (and (and (and (and (and (and (and (and (and (and (and (and (and (and (and (and (and (and (and (and (and (and (and (and (and (and (and (and (and (and (and (and (and (and (and (and (and (and (and (and (and (and (and (and (and (and (and (and (and (and (and (and (and (and (and (and (and (and (and (and (and (and (and (and (and (and (and (and (and (and (and (and (and (and (and (and (and (and (and (and (and (and (and (and (and (and (and (and (and (and (and (and (and (and (and (and (and (and (and (and (and (and (and (and (and (and (and (and (and (and (and (and (and (and (and (and (and (and (and (and (and (and (and (and (and (and (and (or (or ?v_44 ?v_40) P27) (or (or P15 ?v_98) ?v_6)) (or (or ?v_59 ?v_23) ?v_88)) (or (or ?v_1 P7) ?v_42)) (or (or ?v_3 ?v_37) ?v_8)) (or (or ?v_33 ?v_10) ?v_0)) (or (or ?v_5 ?v_125) ?v_154)) (or (or ?v_1 P24) P23)) (or (or ?v_50 ?v_75) P21)) (or (or ?v_131 P23) ?v_60)) (or (or ?v_134 ?v_90) ?v_2)) (or (or ?v_19 ?v_26) ?v_61)) (or (or ?v_111 ?v_4) ?v_5)) (or (or ?v_155 ?v_47) ?v_6)) (or (or ?v_7 P18) ?v_30)) (or (or ?v_9 ?v_22) ?v_4)) (or (or ?v_74 ?v_55) ?v_14)) (or (or ?v_16 ?v_10) ?v_84)) (or (or ?v_58 ?v_39) ?v_99)) (or (or ?v_43 P13) ?v_36)) (or (or ?v_17 ?v_12) ?v_15)) (or (or ?v_12 ?v_35) ?v_45)) (or (or ?v_78 ?v_14) P7)) (or (or P21 ?v_15) ?v_156)) (or (or ?v_16 ?v_17) ?v_34)) (or (or ?v_72 ?v_19) ?v_20)) (or (or ?v_19 P11) ?v_14)) (or (or ?v_21 ?v_21) ?v_22)) (or (or ?v_32 ?v_142) ?v_29)) (or (or P1 ?v_9) P24)) (or (or ?v_89 ?v_51) P19)) (or (or ?v_24 ?v_54) ?v_26)) (or (or P3 ?v_115) ?v_38)) (or (or ?v_28 ?v_29) ?v_30)) (or (or ?v_56 ?v_12) ?v_53)) (or (or ?v_22 ?v_62) ?v_150)) (or (or ?v_16 ?v_114) ?v_34)) (or (or ?v_35 ?v_100) ?v_63)) (or (or ?v_36 ?v_37) ?v_41)) (or (or ?v_94 ?v_39) ?v_40)) (or (or ?v_93 ?v_42) ?v_43)) (or (or ?v_92 ?v_139) P17)) (or (or ?v_34 ?v_45) P11)) (or (or ?v_46 ?v_47) P13)) (or (or ?v_15 ?v_48) P26)) (or (or ?v_49 ?v_102) ?v_15)) (or (or ?v_50 ?v_1) ?v_97)) (or (or ?v_51 ?v_52) ?v_53)) (or (or ?v_149 ?v_68) ?v_33)) (or (or ?v_107 P28) ?v_64)) (or (or ?v_34 ?v_56) ?v_67)) (or (or ?v_113 ?v_42) ?v_24)) (or (or ?v_21 ?v_57) ?v_58)) (or (or ?v_71 ?v_69) ?v_59)) (or (or ?v_22 ?v_37) ?v_60)) (or (or ?v_61 ?v_34) ?v_28)) (or (or ?v_62 ?v_63) ?v_64)) (or (or ?v_109 P4) P27)) (or (or ?v_73 ?v_19) P2)) (or (or ?v_63 ?v_120) P16)) (or (or ?v_67 ?v_39) ?v_82)) (or (or ?v_69 P15) ?v_70)) (or (or ?v_71 ?v_124) P9)) (or (or ?v_87 ?v_110) P27)) (or (or P16 ?v_143) ?v_72)) (or (or ?v_73 ?v_74) ?v_7)) (or (or ?v_141 P20) ?v_75)) (or (or ?v_74 ?v_33) ?v_76)) (or (or ?v_30 ?v_17) ?v_112)) (or (or ?v_47 P15) ?v_78)) (or (or ?v_79 ?v_24) ?v_0)) (or (or ?v_49 P5) ?v_122)) (or (or ?v_40 ?v_67) P14)) (or (or ?v_5 ?v_53) ?v_83)) (or (or P2 ?v_80) P20)) (or (or ?v_7 ?v_43) ?v_81)) (or (or ?v_82 ?v_82) (not P9))) (or (or ?v_75 ?v_83) P15)) (or (or ?v_12 ?v_68) ?v_8)) (or (or ?v_85 ?v_72) P20)) (or (or P2 ?v_10) ?v_147)) (or (or ?v_5 ?v_9) P24)) (or (or P12 ?v_60) ?v_146)) (or (or ?v_8 ?v_24) ?v_104)) (or (or ?v_151 ?v_106) P2)) (or (or P27 P29) ?v_39)) (or (or ?v_85 ?v_86) ?v_95)) (or (or ?v_78 P15) ?v_88)) (or (or ?v_54 ?v_130) P19)) (or (or P25 ?v_89) ?v_90)) (or (or ?v_80 ?v_103) ?v_38)) (or (or ?v_3 ?v_48) ?v_133)) (or (or ?v_74 ?v_91) ?v_92)) (or (or P0 ?v_101) ?v_93)) (or (or ?v_93 ?v_32) ?v_108)) (or (or P16 ?v_117) ?v_94)) (or (or ?v_35 ?v_95) ?v_96)) (or (or ?v_88 ?v_48) ?v_64)) (or (or ?v_119 ?v_97) ?v_94)) (or (or ?v_33 ?v_132) ?v_58)) (or (or ?v_99 ?v_2) ?v_41)) (or (or ?v_100 ?v_118) ?v_61)) (or (or ?v_123 ?v_101) P19)) (or (or ?v_53 ?v_30) ?v_41)) (or (or ?v_102 ?v_52) ?v_4)) (or (or ?v_103 ?v_79) ?v_85)) (or (or ?v_23 ?v_76) ?v_46)) (or (or ?v_6 ?v_121) ?v_7)) (or ?v_135 (not P29))) (or (or ?v_98 ?v_105) ?v_136)) (or (or ?v_53 P10) ?v_46)) (or (or ?v_138 P11) P12)) (or (or ?v_26 ?v_30) ?v_107)) (or (or ?v_41 P12) ?v_94)) (or (or ?v_39 ?v_36) ?v_60)) (or (or ?v_108 ?v_15) ?v_52)) (or (or ?v_40 ?v_35) ?v_102)) (or (or P27 ?v_109) ?v_110)) (or (or ?v_44 ?v_69) ?v_50)) (or (or P28 ?v_54) ?v_111)) (or (or ?v_144 ?v_112) ?v_16)) (or (or ?v_42 ?v_19) ?v_47)) (or (or ?v_104 ?v_89) ?v_113)) (or (or ?v_12 ?v_3) ?v_75)) (or (or P25 ?v_114) ?v_39)) (or (or ?v_72 P18) ?v_3)) (or (or ?v_22 ?v_33) ?v_98)) (or (or ?v_137 P25) ?v_71)) (or (or ?v_54 ?v_103) P4)) (or (or ?v_94 ?v_15) P8)) (or (or ?v_82 ?v_145) ?v_109)) (or (or ?v_116 ?v_22) ?v_117)) (or (or ?v_126 ?v_118) ?v_119)) (or (or P3 ?v_120) ?v_33)) (or (or ?v_76 ?v_121) P9)) (or (or ?v_103 ?v_114) ?v_34)) (or (or ?v_122 ?v_123) ?v_63)) (or (or ?v_80 ?v_120) ?v_20)) (or (or ?v_8 P26) P9)) (or (or ?v_60 P7) ?v_124)) (or (or P29 ?v_52) ?v_117)) (or (or ?v_41 ?v_114) ?v_75)) (or (or ?v_91 ?v_90) ?v_125)) (or (or ?v_69 ?v_37) ?v_82)) (or (or ?v_126 ?v_23) ?v_101)) (or (or P9 ?v_127) ?v_5)) (or (or ?v_30 ?v_127) ?v_44)) (or (or ?v_39 ?v_118) ?v_16)) (or (or ?v_35 ?v_28) ?v_72)) (or (or ?v_26 P20) ?v_128)) (or (or ?v_82 ?v_127) ?v_67)) (or (or ?v_127 ?v_106) ?v_50)) (or (or ?v_97 ?v_81) ?v_9)) (or (or ?v_73 ?v_106) ?v_75)) (or (or ?v_129 ?v_130) P19)) (or (or ?v_23 ?v_111) ?v_131)) (or (or ?v_41 ?v_90) P8)) (or (or ?v_132 ?v_7) ?v_108)) (or (or ?v_115 ?v_148) ?v_101)) (or (or ?v_9 ?v_124) P1)) (or (or P8 ?v_115) ?v_4)) (or (or ?v_34 ?v_125) ?v_130)) (or (or ?v_123 ?v_108) ?v_56)) (or (or ?v_64 ?v_105) ?v_72)) (or (or ?v_10 ?v_133) ?v_113)) (or (or ?v_134 ?v_70) ?v_131)) (or ?v_135 P8)) (or (or ?v_49 ?v_46) ?v_69)) (or (or ?v_136 ?v_33) ?v_92)) (or (or ?v_87 ?v_40) P15)) (or (or P2 ?v_78) ?v_61)) (or (or ?v_58 ?v_60) ?v_119)) (or (or ?v_38 ?v_15) ?v_98)) (or (or ?v_119 ?v_98) P9)) (or (or P1 ?v_17) ?v_37)) (or (or ?v_137 ?v_40) ?v_58)) (or (or ?v_83 ?v_23) ?v_24)) (or (or ?v_10 ?v_108) P25)) (or (or P9 ?v_89) ?v_131)) (or (or ?v_56 ?v_36) ?v_49)) (or (or P13 ?v_8) ?v_132)) (or (or P29 ?v_58) ?v_90)) (or (or ?v_34 ?v_107) P28)) (or (or ?v_138 ?v_0) ?v_29)) (or (or ?v_22 ?v_79) ?v_94)) (or (or ?v_58 ?v_59) P13)) (or (or ?v_139 P29) ?v_63)) (or (or ?v_139 ?v_72) ?v_53)) (or (or ?v_140 ?v_111) ?v_69)) (or (or ?v_141 P21) ?v_113)) (or (or ?v_45 P27) ?v_96)) (or (or ?v_67 ?v_89) P14)) (or (or ?v_19 ?v_79) ?v_116)) (or (or P16 ?v_68) ?v_81)) (or (or ?v_29 ?v_45) ?v_115)) (or (or ?v_101 ?v_111) ?v_2)) (or (or ?v_34 ?v_138) ?v_1)) (or (or ?v_34 ?v_75) P3)) (or (or ?v_127 ?v_84) ?v_63)) (or (or ?v_71 ?v_94) ?v_68)) (or (or ?v_93 ?v_92) ?v_37)) (or (or ?v_142 ?v_142) ?v_87)) (or (or ?v_143 ?v_129) P25)) (or (or ?v_67 ?v_126) ?v_50)) (or (or P13 P21) ?v_144)) (or ?v_157 ?v_123)) (or (or ?v_145 ?v_15) ?v_116)) (or (or ?v_146 ?v_69) P14)) (or (or ?v_57 ?v_119) ?v_137)) (or (or P25 ?v_41) ?v_147)) (or (or ?v_71 P7) ?v_107)) (or (or ?v_140 ?v_141) ?v_148)) (or (or ?v_153 ?v_89) ?v_47)) (or (or ?v_128 ?v_79) P15)) (or (or ?v_57 ?v_17) ?v_132)) (or (or ?v_70 P26) ?v_59)) (or (or ?v_143 ?v_80) ?v_39)) (or (or ?v_143 ?v_14) P17)) (or (or ?v_134 ?v_34) ?v_112)) (or (or ?v_105 ?v_6) P20)) (or (or ?v_96 ?v_42) ?v_129)) (or (or ?v_87 ?v_148) ?v_132)) (or (or ?v_134 P10) ?v_43)) (or (or ?v_97 P6) ?v_2)) (or (or ?v_111 ?v_20) ?v_17)) (or (or ?v_114 ?v_1) P11)) (or (or ?v_15 ?v_101) ?v_120)) (or (or ?v_54 ?v_49) ?v_39)) (or (or ?v_69 ?v_8) ?v_123)) (or (or ?v_137 ?v_107) P10)) (or (or ?v_126 ?v_127) ?v_109)) (or (or ?v_108 ?v_124) ?v_96)) (or (or ?v_108 P16) ?v_52)) (or (or ?v_89 ?v_80) P3)) (or (or ?v_149 ?v_42) ?v_133)) (or (or ?v_16 ?v_33) ?v_23)) (or (or ?v_93 ?v_120) ?v_108)) (or (or ?v_59 P23) ?v_111)) (or (or ?v_115 ?v_41) ?v_15)) (or (or P16 ?v_104) ?v_34)) (or (or ?v_110 ?v_114) P6)) (or (or ?v_84 ?v_83) ?v_19)) (or (or ?v_2 P15) ?v_22)) (or (or ?v_111 P21) ?v_105)) (or (or ?v_108 ?v_119) P14)) (or (or ?v_97 ?v_14) ?v_53)) (or (or ?v_117 ?v_83) ?v_14)) (or (or ?v_103 ?v_62) ?v_150)) (or (or ?v_112 ?v_130) ?v_76)) (or (or P24 P3) P22)) (or (or ?v_33 ?v_143) ?v_48)) (or (or P13 ?v_12) ?v_110)) (or (or ?v_90 ?v_119) ?v_9)) (or (or ?v_44 ?v_72) P1)) (or (or ?v_99 ?v_35) ?v_12)) (or (or ?v_109 ?v_108) ?v_152)) (or (or ?v_151 ?v_84) ?v_87)) (or (or ?v_54 ?v_91) ?v_57)) (or (or P21 ?v_97) ?v_109)) (or (or ?v_126 ?v_10) ?v_1)) (or (or ?v_30 ?v_12) ?v_127)) (or (or ?v_50 ?v_44) P0)) (or (or ?v_33 ?v_48) ?v_131)) (or (or ?v_54 ?v_24) ?v_74)) (or (or ?v_93 P9) ?v_29)) (or (or ?v_113 ?v_58) ?v_105)) (or (or ?v_148 ?v_9) ?v_152)) (or (or ?v_48 P11) ?v_17)) (or (or ?v_127 ?v_52) ?v_117)) (or (or ?v_131 ?v_72) ?v_120)) (or (or ?v_138 ?v_112) ?v_99)) (or (or ?v_91 ?v_82) P2)) (or (or ?v_92 ?v_79) ?v_32)) (or (or ?v_75 ?v_39) P9)) (or (or ?v_78 ?v_16) ?v_147)) (or (or ?v_3 P28) ?v_10)) (or (or ?v_15 ?v_51) P26)) (or (or ?v_153 ?v_2) ?v_119)) (or (or ?v_63 P15) P26)) (or (or ?v_78 ?v_53) ?v_12)) (or (or P19 P5) ?v_101)) (or (or P19 ?v_110) ?v_127)) (or (or ?v_95 ?v_126) ?v_154)) (or (or ?v_92 ?v_147) ?v_136)) (or (or ?v_7 ?v_8) ?v_44)) (or (or ?v_88 ?v_93) ?v_141)) (or (or ?v_44 ?v_20) ?v_38)) (or (or ?v_155 ?v_109) P12)) (or (or ?v_97 ?v_12) P10)) (or (or P26 ?v_131) P19)) (or (or ?v_48 ?v_21) ?v_35)) (or (or ?v_98 ?v_59) ?v_48)) (or (or ?v_120 ?v_112) P15)) (or (or ?v_107 P22) ?v_149)) (or (or ?v_144 ?v_33) ?v_60)) (or (or ?v_19 ?v_103) ?v_106)) (or (or ?v_121 ?v_154) ?v_72)) (or (or ?v_52 ?v_119) ?v_125)) (or (or ?v_20 ?v_51) ?v_35)) (or (or ?v_51 ?v_140) ?v_100)) (or (or P2 ?v_74) ?v_20)) (or (or P0 P25) P4)) (or (or ?v_81 ?v_38) ?v_90)) (or (or ?v_103 ?v_119) ?v_3)) (or (or ?v_35 ?v_70) ?v_14)) (or (or ?v_144 ?v_123) ?v_1)) (or (or ?v_23 ?v_75) P9)) (or (or ?v_41 ?v_89) ?v_57)) (or (or P9 ?v_156) ?v_51)) (or (or ?v_83 P26) ?v_61)) (or (or ?v_150 ?v_15) ?v_147)) (or (or P7 ?v_1) ?v_24)) (or (or P23 ?v_10) ?v_55)) (or (or ?v_49 P10) ?v_60)) (or (or ?v_33 P13) ?v_49)) (or (or ?v_24 ?v_141) ?v_87)) (or ?v_157 ?v_136)) (or (or ?v_86 ?v_34) ?v_30)) (or (or ?v_84 ?v_2) ?v_40)) (or (or ?v_128 ?v_55) ?v_114)) (or (or ?v_129 ?v_76) ?v_90)) (or (or ?v_116 ?v_88) ?v_59)) (or (or ?v_111 ?v_113) ?v_89)) (or (or P20 ?v_38) ?v_67)) (or (or ?v_39 P5) P29)) (or (or P4 ?v_124) ?v_93)) (or (or P28 ?v_144) ?v_49)) (or (or P2 ?v_132) ?v_88)) (or (or ?v_155 ?v_140) ?v_37)) (or (or ?v_67 ?v_28) ?v_37)) (or (or ?v_115 ?v_32) ?v_154)) (or (or ?v_151 ?v_156) ?v_118)) (or (or ?v_45 ?v_52) ?v_103)) (or (or ?v_124 ?v_46) ?v_16)) (or (or ?v_90 ?v_114) ?v_122)) (or (or ?v_83 P11) P9)) (or (or ?v_83 ?v_32) P10)) (or (or ?v_140 ?v_132) ?v_90)) (or (or ?v_138 ?v_96) ?v_151)) (or (or ?v_82 P22) ?v_83)) (or (or ?v_0 ?v_3) ?v_17)) (or (or ?v_53 P5) ?v_87)) (or (or ?v_16 ?v_2) P27)) (or (or ?v_81 ?v_114) ?v_115)) (or (or ?v_22 ?v_143) ?v_16)) (or (or ?v_153 ?v_71) ?v_32)) (or (or ?v_140 ?v_74) ?v_56)) (or (or P19 ?v_120) ?v_140)) (or (or ?v_16 ?v_60) ?v_78)) (or (or ?v_101 ?v_121) ?v_71)) (or (or ?v_35 ?v_153) ?v_102)) (or (or ?v_113 ?v_140) ?v_53)) (or (or ?v_123 P29) ?v_124)) (or (or ?v_71 ?v_85) ?v_70)) (or (or ?v_86 ?v_133) P29)) (or (or ?v_155 ?v_101) ?v_121)) (or (or ?v_143 ?v_139) P14)) (or (or ?v_152 P11) ?v_103)) (or (or ?v_104 ?v_78) P19)) (or (or ?v_128 ?v_121) ?v_59)))))))))))))))))))))))))
(check-sat)
(exit)
